
Gurobi 10.0.3 (linux64, gurobi_cl) logging started Fri Nov 10 19:40:41 2023

Set parameter Username
Set parameter TimeLimit to value 3600
Set parameter LogFile to value "RCPSP_1719.log"
Set parameter Threads to value 32
Academic license - for non-commercial use only - expires 2024-10-30
Using license file /home/jrivera6/gurobi-licenses/v1003/compute-0-34/gurobi.lic

Gurobi Optimizer version 10.0.3 build v10.0.3rc0 (linux64)
Copyright (c) 2023, Gurobi Optimization, LLC

Read MPS format model from file RCPSP_1719.mps
Reading time = 0.18 seconds
RCPSP_1719: 75251 rows, 29890 columns, 251666 nonzeros

CPU model: Intel(R) Xeon(R) Gold 6130 CPU @ 2.10GHz, instruction set [SSE2|AVX|AVX2|AVX512]
Thread count: 32 physical cores, 32 logical processors, using up to 32 threads

Optimize a model with 75251 rows, 29890 columns and 251666 nonzeros
Model fingerprint: 0x4c520033
Variable types: 122 continuous, 29768 integer (29768 binary)
Coefficient statistics:
  Matrix range     [1e+00, 6e+02]
  Objective range  [1e+00, 1e+00]
  Bounds range     [1e+00, 1e+00]
  RHS range        [1e+00, 6e+02]
Presolve removed 11163 rows and 1597 columns (presolve time = 5s) ...
Presolve removed 12865 rows and 2478 columns
Presolve time: 8.65s
Presolved: 62386 rows, 27412 columns, 218727 nonzeros
Variable types: 121 continuous, 27291 integer (27291 binary)

Deterministic concurrent LP optimizer: primal and dual simplex (primal and dual model)
Showing first log only...

Root relaxation presolved: 62386 rows, 27412 columns, 218727 nonzeros


Root simplex log...

Iteration    Objective       Primal Inf.    Dual Inf.      Time
       0    9.3874820e+01   1.570433e-02   1.941963e+08     11s
    3870    9.3000000e+01   0.000000e+00   0.000000e+00     12s
Concurrent spin time: 1.22s

Solved with dual simplex (dual model)

Root relaxation: objective 9.300000e+01, 30186 iterations, 3.82 seconds (0.30 work units)
Total elapsed time = 19.92s
Total elapsed time = 21.67s
Total elapsed time = 25.69s

    Nodes    |    Current Node    |     Objective Bounds      |     Work
 Expl Unexpl |  Obj  Depth IntInf | Incumbent    BestBd   Gap | It/Node Time

     0     0   93.00000    0  380          -   93.00000      -     -   29s
     0     0   93.00000    0  380          -   93.00000      -     -   30s
     0     0   93.00000    0 1710          -   93.00000      -     -  177s
     0     0   93.00000    0 1472          -   93.00000      -     -  188s
     0     0   93.00000    0 1413          -   93.00000      -     -  190s
     0     0   93.00000    0 1407          -   93.00000      -     -  190s
     0     0   93.00000    0 1758          -   93.00000      -     -  197s
     0     0   93.00000    0 1671          -   93.00000      -     -  198s
     0     0   93.00000    0  217          -   93.00000      -     -  249s
     0     0   93.00000    0  285          -   93.00000      -     -  252s
     0     0   93.00000    0  284          -   93.00000      -     -  253s
     0     0   93.00000    0  282          -   93.00000      -     -  254s
     0     0   93.00000    0  191          -   93.00000      -     -  281s
     0     0   93.00000    0 1094          -   93.00000      -     -  292s
     0     0   93.00000    0 1090          -   93.00000      -     -  293s
     0     0   93.00000    0  277          -   93.00000      -     -  327s
     0     0   93.00000    0  655          -   93.00000      -     -  335s
     0     0   93.00000    0  654          -   93.00000      -     -  336s
     0     0   93.00000    0  652          -   93.00000      -     -  336s
     0     0   93.00000    0  170          -   93.00000      -     -  365s
     0     0   93.00000    0  792          -   93.00000      -     -  386s
     0     0   93.00000    0  728          -   93.00000      -     -  387s
     0     0   93.00000    0  164          -   93.00000      -     -  409s
     0     0   93.00000    0 1046          -   93.00000      -     -  431s
     0     0   93.00000    0 1043          -   93.00000      -     -  432s
     0     0   93.00000    0 1039          -   93.00000      -     -  432s
     0     0   93.00000    0  195          -   93.00000      -     -  460s
     0     0   93.00000    0  192          -   93.00000      -     -  461s
     0     0   93.00000    0  664          -   93.00000      -     -  467s
     0     0   93.00000    0  660          -   93.00000      -     -  468s
     0     0   93.00000    0  114          -   93.00000      -     -  497s
     0     0   93.00000    0  800          -   93.00000      -     -  509s
     0     0   93.00000    0  795          -   93.00000      -     -  509s
     0     0   93.00000    0  168          -   93.00000      -     -  533s
     0     0   93.00000    0  142          -   93.00000      -     -  539s
     0     2   93.00000    0  142          -   93.00000      -     -  583s
     1     4   93.00000    1  243          -   93.00000      -  2818  599s
     3     8   93.00000    2  944          -   93.00000      -  1311  643s
     7    14   93.00000    3  936          -   93.00000      -  1016  699s
    14    14   94.00000    3  785          -   93.00000      -   514  701s
    15    26   93.00000    4  831          -   93.00000      -   607  802s
    29    50   93.00000    5 1048          -   93.00000      -  1341 1208s
    32    50   94.00000    5 1327          -   93.00000      -  1458 1211s
    55    79   93.00000    6  985          -   93.00000      -  1699 1489s
    56    79   93.00000    6 1335          -   93.00000      -  1720 1490s
    87   109   93.00000    7  868          -   93.00000      -  1646 1557s
   119   141   93.00000    8 1003          -   93.00000      -  1446 1583s
   151   172   93.00000    8  907          -   93.00000      -  1184 1640s
   183   209   93.00000    9  919          -   93.00000      -   996 1788s
   222   251   93.00000    9  889          -   93.00000      -  1191 2020s
   264   298   93.00000   10  248          -   93.00000      -  1198 2081s
   312   344   93.00000   11  218          -   93.00000      -  1022 2118s
   358   394   93.00000   12  216          -   93.00000      -   900 2149s
   411   526   93.00000   13  216          -   93.00000      -   795 2226s
   544   704   93.00000   16  228          -   93.00000      -   663 2467s
   734   949   93.00000   20  232          -   93.00000      -   529 2767s
   988  1201   93.00000   21  232          -   93.00000      -   430 2889s
  1258  1627   93.00000   26  323          -   93.00000      -   364 3263s
  1371  1627   94.00000   35  869          -   93.00000      -   345 3265s
  1700  2313   93.00000   31  282          -   93.00000      -   294 3668s

Cutting planes:
  Gomory: 36
  Lift-and-project: 1
  Cover: 276
  Implied bound: 336
  Clique: 4
  MIR: 3462
  StrongCG: 31
  Zero half: 4
  RLT: 2002
  Relax-and-lift: 910

Explored 2438 nodes (779462 simplex iterations) in 3697.52 seconds (133.77 work units)
Thread count was 32 (of 32 available processors)

Solution count 0

Time limit reached
Best objective -, best bound 9.300000000000e+01, gap -

Unable to retrieve attribute 'X'

